(declare-const __VERIFIER_assert__cond___7 Int)
(declare-const __VERIFIER_assert__cond___16 Int)
(declare-const |main____CPAchecker_TMP_0___0':142:165:172:341:378:407| Int)
(declare-const havoc Int)
(declare-const |phi_main____CPAchecker_TMP_0:348:366:395| Int)
(declare-const |phi_main__t:349:365:394| Int)
(declare-const |__VERIFIER_assert__cond___16':144:164:171:340:377:406| Int)
(declare-const __VERIFIER_assert__cond___8 Int)
(declare-const |havoc:25:61:333:362:390:419| Int)
(declare-const |main__t':140:160:167:336:373:402| Int)
(declare-const |phi___VERIFIER_assert__cond___12:346:368:397| Int)
(declare-const |phi___VERIFIER_assert__cond___15:344:370:399| Int)
(declare-const |havoc:24:60:273:332:361:389:418| Int)
(declare-const |havoc:3:58:391| Int)
(declare-const |main____CPAchecker_TMP_3':295:322:331:360:388:417| Int)
(declare-const main____CPAchecker_TMP_6 Int)
(declare-const main____CPAchecker_TMP_4 Int)
(declare-const |__tmp_383_0':139:163:170:339:376:405| Int)
(declare-const |havoc:9:59:138:334:342:379:408| Int)
(declare-const |phi___VERIFIER_assert__cond___16:343:371:400| Int)
(declare-const |phi_main____CPAchecker_TMP_0___0:345:369:398| Int)
(declare-const __VERIFIER_assert__cond___3 Int)
(declare-const |main____CPAchecker_TMP_6':301:318:327:356:384:413| Int)
(declare-const |K:313:314:323:352:380:409| Int)
(declare-const |main____CPAchecker_TMP_4':296:321:330:359:387:416| Int)
(declare-const main____CPAchecker_TMP_3 Int)
(declare-const |__VERIFIER_assert__cond___4':298:319:328:357:385:414| Int)
(declare-const |phi___tmp_247_0:350:364:393| Int)
(declare-const __VERIFIER_assert__cond___11 Int)
(declare-const |__VERIFIER_assert__cond___8':300:316:325:354:382:411| Int)
(declare-const __VERIFIER_assert__cond___12 Int)
(declare-const __tmp_383_0 Int)
(declare-const |__VERIFIER_assert__cond___3':297:320:329:358:386:415| Int)
(declare-const __VERIFIER_assert__cond___4 Int)
(declare-const |phi___tmp_383_0:351:363:392| Int)
(declare-const main____CPAchecker_TMP_0___0 Int)
(declare-const __VERIFIER_assert__cond___15 Int)
(declare-const |main__t':140:317:326:355:383:412| Int)
(declare-const |__VERIFIER_assert__cond___15':143:161:168:337:374:403| Int)
(declare-const |K:158:159:166:335:372:401| Int)
(declare-const |main____CPAchecker_TMP_0':141:162:169:338:375:404| Int)
(declare-const |phi___VERIFIER_assert__cond___11:347:367:396| Int)
(declare-const |__VERIFIER_assert__cond___7':299:315:324:353:381:410| Int)
(assert (and (<= (+ (- havoc) 1) 0) (not (= (+ (- havoc) 1) 0))
               (or (and (not (= |havoc:3:58:391| 0))
                          (= (+ (- |phi___tmp_383_0:351:363:392|) __tmp_383_0) 0)
                          (= (+ (- |phi___tmp_247_0:350:364:393|)
                                  |havoc:3:58:391|) 0)
                          (= (- |phi_main__t:349:365:394|) 0)
                          (= (+ (- |phi_main____CPAchecker_TMP_0:348:366:395|)
                                  |havoc:3:58:391|) 0)
                          (= (+ (- |phi___VERIFIER_assert__cond___11:347:367:396|)
                                  __VERIFIER_assert__cond___11) 0)
                          (= (+ (- |phi___VERIFIER_assert__cond___12:346:368:397|)
                                  __VERIFIER_assert__cond___12) 0)
                          (= (+ (- |phi_main____CPAchecker_TMP_0___0:345:369:398|)
                                  main____CPAchecker_TMP_0___0) 0)
                          (= (+ (- |phi___VERIFIER_assert__cond___15:344:370:399|)
                                  __VERIFIER_assert__cond___15) 0)
                          (= (+ (- |phi___VERIFIER_assert__cond___16:343:371:400|)
                                  __VERIFIER_assert__cond___16) 0))
                     (and (= |havoc:3:58:391| 0)
                            (not (= (ite (<= (+ (- havoc) 1) 0) 1 0) 0))
                            (or (not (<= (- |K:158:159:166:335:372:401|) 0))
                                  (= (+ |main__t':140:160:167:336:373:402|
                                          (- |K:158:159:166:335:372:401|)) 0))
                            (or (not (and (<= (- |K:158:159:166:335:372:401|) 0)
                                            (<= |K:158:159:166:335:372:401| 0)))
                                  (= (+ |__VERIFIER_assert__cond___15':143:161:168:337:374:403|
                                          (- __VERIFIER_assert__cond___15)) 0))
                            (or (not (<= (+ (- |K:158:159:166:335:372:401|) 1) 0))
                                  (= (+ |__VERIFIER_assert__cond___15':143:161:168:337:374:403|
                                          -1) 0))
                            (or (not (and (<= (- |K:158:159:166:335:372:401|) 0)
                                            (<= |K:158:159:166:335:372:401| 0)))
                                  (= (+ |main____CPAchecker_TMP_0':141:162:169:338:375:404|
                                          (- |havoc:3:58:391|)) 0))
                            (or (not (<= (+ (- |K:158:159:166:335:372:401|) 1) 0))
                                  (= |main____CPAchecker_TMP_0':141:162:169:338:375:404| 0))
                            (or (not (and (<= (- |K:158:159:166:335:372:401|) 0)
                                            (<= |K:158:159:166:335:372:401| 0)))
                                  (= (+ |__tmp_383_0':139:163:170:339:376:405|
                                          (- |havoc:3:58:391|)) 0))
                            (or (not (<= (+ (- |K:158:159:166:335:372:401|) 1) 0))
                                  (= |__tmp_383_0':139:163:170:339:376:405| 0))
                            (or (not (and (<= (- |K:158:159:166:335:372:401|) 0)
                                            (<= |K:158:159:166:335:372:401| 0)))
                                  (= (+ |__VERIFIER_assert__cond___16':144:164:171:340:377:406|
                                          (- __VERIFIER_assert__cond___16)) 0))
                            (or (not (<= (+ (- |K:158:159:166:335:372:401|) 1) 0))
                                  (= (+ |__VERIFIER_assert__cond___16':144:164:171:340:377:406|
                                          -1) 0))
                            (or (not (and (<= (- |K:158:159:166:335:372:401|) 0)
                                            (<= |K:158:159:166:335:372:401| 0)))
                                  (= (+ |main____CPAchecker_TMP_0___0':142:165:172:341:378:407|
                                          (- main____CPAchecker_TMP_0___0)) 0))
                            (or (not (<= (+ (- |K:158:159:166:335:372:401|) 1) 0))
                                  (= |main____CPAchecker_TMP_0___0':142:165:172:341:378:407| 0))
                            (or (and (= |K:158:159:166:335:372:401| 0)
                                       (= (+ (- |__VERIFIER_assert__cond___16':144:164:171:340:377:406|)
                                               __VERIFIER_assert__cond___16) 0)
                                       (= (+ (- |__VERIFIER_assert__cond___15':143:161:168:337:374:403|)
                                               __VERIFIER_assert__cond___15) 0)
                                       (= (+ (- |main____CPAchecker_TMP_0___0':142:165:172:341:378:407|)
                                               main____CPAchecker_TMP_0___0) 0)
                                       (= (+ (- |main____CPAchecker_TMP_0':141:162:169:338:375:404|)
                                               |havoc:3:58:391|) 0)
                                       (= (- |main__t':140:160:167:336:373:402|) 0)
                                       (= (+ (- |__tmp_383_0':139:163:170:339:376:405|)
                                               |havoc:3:58:391|) 0))
                                  (and (<= (+ (- |K:158:159:166:335:372:401|)
                                                1) 0) (= |havoc:3:58:391| 0)
                                         (= |havoc:3:58:391| 0)
                                         (<= (+ (- havoc) 3) 0)
                                         (= (+ |__VERIFIER_assert__cond___16':144:164:171:340:377:406|
                                                 -1) 0)
                                         (= (+ |__VERIFIER_assert__cond___15':143:161:168:337:374:403|
                                                 -1) 0)
                                         (= |main____CPAchecker_TMP_0':141:162:169:338:375:404| 0)
                                         (= |main____CPAchecker_TMP_0___0':142:165:172:341:378:407| 0)
                                         (= |__tmp_383_0':139:163:170:339:376:405| 0)
                                         (<= (+ |main__t':140:160:167:336:373:402|
                                                  (- havoc) 2) 0)
                                         (<= (+ (- |main__t':140:160:167:336:373:402|)
                                                  1) 0)))
                            (<= (- |K:158:159:166:335:372:401|) 0)
                            (= |__tmp_383_0':139:163:170:339:376:405| 0)
                            (= |main____CPAchecker_TMP_0':141:162:169:338:375:404| 0)
                            (<= (- |main__t':140:160:167:336:373:402|) 0)
                            (< (+ (- havoc) 1) 0)
                            (= |__tmp_383_0':139:163:170:339:376:405| 0)
                            (= |main____CPAchecker_TMP_0':141:162:169:338:375:404| 0)
                            (not (= (+ |main__t':140:160:167:336:373:402|
                                         (- havoc) 2) 0))
                            (not (= |havoc:9:59:138:334:342:379:408| 0))
                            (= (+ |__tmp_383_0':139:163:170:339:376:405|
                                    (- |phi___tmp_383_0:351:363:392|)) 0)
                            (= (+ |havoc:9:59:138:334:342:379:408|
                                    (- |phi___tmp_247_0:350:364:393|)) 0)
                            (= (+ |main__t':140:160:167:336:373:402|
                                    (- |phi_main__t:349:365:394|) 1) 0)
                            (= (+ |__tmp_383_0':139:163:170:339:376:405|
                                    (- |phi_main____CPAchecker_TMP_0:348:366:395|)) 0)
                            (= (+ (- |phi___VERIFIER_assert__cond___11:347:367:396|)
                                    1) 0)
                            (= (+ (ite (<= (+ (- havoc) 1) 0) 1 0)
                                    (- |phi___VERIFIER_assert__cond___12:346:368:397|)) 0)
                            (= (+ |havoc:9:59:138:334:342:379:408|
                                    (- |phi_main____CPAchecker_TMP_0___0:345:369:398|)) 0)
                            (= (+ |__VERIFIER_assert__cond___15':143:161:168:337:374:403|
                                    (- |phi___VERIFIER_assert__cond___15:344:370:399|)) 0)
                            (= (+ |__VERIFIER_assert__cond___16':144:164:171:340:377:406|
                                    (- |phi___VERIFIER_assert__cond___16:343:371:400|)) 0)))
               (not (= (ite (<= (- |phi_main__t:349:365:394|) 0) 1 0) 0))
               (not (= (ite (<= (+ |phi_main__t:349:365:394| (- havoc) 1) 0)
                            1 0) 0))
               (or (not (and (<= (- |K:313:314:323:352:380:409|) 0)
                               (<= |K:313:314:323:352:380:409| 0)))
                     (= (+ (- __VERIFIER_assert__cond___7)
                             |__VERIFIER_assert__cond___7':299:315:324:353:381:410|) 0))
               (or (not (<= (+ (- |K:313:314:323:352:380:409|) 1) 0))
                     (= (+ |__VERIFIER_assert__cond___7':299:315:324:353:381:410|
                             -1) 0))
               (or (not (and (<= (- |K:313:314:323:352:380:409|) 0)
                               (<= |K:313:314:323:352:380:409| 0)))
                     (= (+ (- __VERIFIER_assert__cond___8)
                             |__VERIFIER_assert__cond___8':300:316:325:354:382:411|) 0))
               (or (not (<= (+ (- |K:313:314:323:352:380:409|) 1) 0))
                     (= (+ |__VERIFIER_assert__cond___8':300:316:325:354:382:411|
                             -1) 0))
               (or (not (<= (- |K:313:314:323:352:380:409|) 0))
                     (<= (+ |main__t':140:317:326:355:383:412|
                              (* -2 |K:313:314:323:352:380:409|)
                              (- |phi_main__t:349:365:394|) -1) 0))
               (or (not (<= (- |K:313:314:323:352:380:409|) 0))
                     (<= (+ |main__t':140:317:326:355:383:412|
                              (* 2 |K:313:314:323:352:380:409|)
                              (- |phi_main__t:349:365:394|)
                              (- (* |K:313:314:323:352:380:409| havoc)) -1) 0))
               (or (not (<= (- |K:313:314:323:352:380:409|) 0))
                     (<= (+ (- |main__t':140:317:326:355:383:412|)
                              |K:313:314:323:352:380:409|
                              |phi_main__t:349:365:394| 1) 0))
               (or (and (= |K:313:314:323:352:380:409| 0)
                          (= (+ (- |main____CPAchecker_TMP_6':301:318:327:356:384:413|)
                                  main____CPAchecker_TMP_6) 0)
                          (= (+ __VERIFIER_assert__cond___8
                                  (- |__VERIFIER_assert__cond___8':300:316:325:354:382:411|)) 0)
                          (= (+ __VERIFIER_assert__cond___7
                                  (- |__VERIFIER_assert__cond___7':299:315:324:353:381:410|)) 0)
                          (= (+ (- |__VERIFIER_assert__cond___4':298:319:328:357:385:414|)
                                  __VERIFIER_assert__cond___4) 0)
                          (= (+ (- |__VERIFIER_assert__cond___3':297:320:329:358:386:415|)
                                  __VERIFIER_assert__cond___3) 0)
                          (= (+ (- |main____CPAchecker_TMP_4':296:321:330:359:387:416|)
                                  main____CPAchecker_TMP_4) 0)
                          (= (+ (- |main____CPAchecker_TMP_3':295:322:331:360:388:417|)
                                  main____CPAchecker_TMP_3) 0)
                          (= (+ (- |main__t':140:317:326:355:383:412|)
                                  |phi_main__t:349:365:394| 1) 0))
                     (and (<= (+ (- |K:313:314:323:352:380:409|) 1) 0)
                            (<= (+ |phi_main__t:349:365:394| (- havoc) 3) 0)
                            (<= (- |phi_main__t:349:365:394|) 0)
                            (= (+ |__VERIFIER_assert__cond___8':300:316:325:354:382:411|
                                    -1) 0)
                            (= (+ |__VERIFIER_assert__cond___7':299:315:324:353:381:410|
                                    -1) 0)
                            (<= (+ |main__t':140:317:326:355:383:412|
                                     (- havoc) 1) 0)
                            (<= (+ (- |main__t':140:317:326:355:383:412|) 2) 0)))
               (<= (- |K:313:314:323:352:380:409|) 0)
               (< (- |main__t':140:317:326:355:383:412|) 0)
               (< (+ (- havoc) 1) 0)
               (not (= (+ |main__t':140:317:326:355:383:412| (- havoc) 1) 0))
               (= |havoc:24:60:273:332:361:389:418| 0)
               (not (= |havoc:25:61:333:362:390:419| 0))
               (not (= (ite (<= (- |main__t':140:317:326:355:383:412|) 0) 1 0) 0))
               (= (ite (<= (+ |main__t':140:317:326:355:383:412| (- havoc) 1) 0)
                       1 0) 0)))
(check-sat)
